Ordonnancement/plne/source/glpk_resultat/3job/3job_7.sol
Problem:    glpsolRcpsp
Rows:       124
Columns:    43 (42 integer, 42 binary)
Non-zeros:  559
Status:     INTEGER OPTIMAL
Objective:  obj = 7 (MINimum)

   No.   Row name        Activity     Lower bound   Upper bound
------ ------------    ------------- ------------- -------------
     1 periode[1]                  1             1             = 
     2 periode[2]                  6             6             = 
     3 periode[3]                  7             7             = 
     4 complet[1,1]                1                           1 
     5 complet[1,2]                1                           1 
     6 complet[1,3]                1                           1 
     7 complet[1,4]                1                           1 
     8 complet[1,5]                1                           1 
     9 complet[1,6]               -1                           1 
    10 complet[1,7]                1                           1 
    11 complet[1,8]                0                           1 
    12 complet[1,9]                0                           1 
    13 complet[1,10]
                                   0                           1 
    14 complet[1,11]
                                   0                           1 
    15 complet[1,12]
                                   0                           1 
    16 complet[2,1]                4                           6 
    17 complet[2,2]                3                           6 
    18 complet[2,3]                2                           6 
    19 complet[2,4]                1                           6 
    20 complet[2,5]                0                           6 
    21 complet[2,6]                6                           6 
    22 complet[2,7]                0                           6 
    23 complet[2,8]                0                           6 
    24 complet[2,9]                0                           6 
    25 complet[2,10]
                                   0                           6 
    26 complet[2,11]
                                   0                           6 
    27 complet[2,12]
                                   0                           6 
    28 complet[3,1]                5                           7 
    29 complet[3,2]                4                           7 
    30 complet[3,3]                3                           7 
    31 complet[3,4]                2                           7 
    32 complet[3,5]                1                           7 
    33 complet[3,6]                0                           7 
    34 complet[3,7]                7                           7 
    35 complet[3,8]                0                           7 
    36 complet[3,9]                0                           7 
    37 complet[3,10]
                                   0                           7 
    38 complet[3,11]
                                   0                           7 
    39 complet[3,12]
                                   0                           7 
    40 cmax[1,1]                   7            -0               
    41 cmax[1,2]                   7            -0               
    42 cmax[1,3]                   7            -0               
    43 cmax[1,4]                   7            -0               
    44 cmax[1,5]                   7            -0               
    45 cmax[1,6]                   7            -0               
    46 cmax[1,7]                   0            -0               
    47 cmax[1,8]                   7            -0               
    48 cmax[1,9]                   7            -0               
    49 cmax[1,10]                  7            -0               
    50 cmax[1,11]                  7            -0               
    51 cmax[1,12]                  7            -0               
    52 cmax[1,13]                  7            -0               
    53 cmax[1,14]                  7            -0               
    54 cmax[2,1]                   6            -0               
    55 cmax[2,2]                   5            -0               
    56 cmax[2,3]                   4            -0               
    57 cmax[2,4]                   3            -0               
    58 cmax[2,5]                   2            -0               
    59 cmax[2,6]                   1            -0               
    60 cmax[2,7]                   7            -0               
    61 cmax[2,8]                   7            -0               
    62 cmax[2,9]                   7            -0               
    63 cmax[2,10]                  7            -0               
    64 cmax[2,11]                  7            -0               
    65 cmax[2,12]                  7            -0               
    66 cmax[2,13]                  7            -0               
    67 cmax[2,14]                  7            -0               
    68 cmax[3,1]                   6            -0               
    69 cmax[3,2]                   5            -0               
    70 cmax[3,3]                   4            -0               
    71 cmax[3,4]                   3            -0               
    72 cmax[3,5]                   2            -0               
    73 cmax[3,6]                   1            -0               
    74 cmax[3,7]                   0            -0               
    75 cmax[3,8]                   7            -0               
    76 cmax[3,9]                   7            -0               
    77 cmax[3,10]                  7            -0               
    78 cmax[3,11]                  7            -0               
    79 cmax[3,12]                  7            -0               
    80 cmax[3,13]                  7            -0               
    81 cmax[3,14]                  7            -0               
    82 ressource[1,1]
                                   6                           8 
    83 ressource[1,2]
                                   6                           8 
    84 ressource[1,3]
                                   6                           8 
    85 ressource[1,4]
                                   6                           8 
    86 ressource[1,5]
                                   6                           8 
    87 ressource[1,6]
                                   6                           8 
    88 ressource[1,7]
                                   6                           8 
    89 ressource[1,8]
                                   0                           8 
    90 ressource[1,9]
                                   0                           8 
    91 ressource[1,10]
                                   0                           8 
    92 ressource[1,11]
                                   0                           8 
    93 ressource[1,12]
                                   0                           8 
    94 ressource[1,13]
                                   0                           8 
    95 ressource[1,14]
                                   0                           8 
    96 ressource[2,1]
                                  12                          15 
    97 ressource[2,2]
                                  12                          15 
    98 ressource[2,3]
                                  12                          15 
    99 ressource[2,4]
                                  12                          15 
   100 ressource[2,5]
                                  12                          15 
   101 ressource[2,6]
                                  12                          15 
   102 ressource[2,7]
                                  15                          15 
   103 ressource[2,8]
                                   0                          15 
   104 ressource[2,9]
                                   0                          15 
   105 ressource[2,10]
                                   0                          15 
   106 ressource[2,11]
                                   0                          15 
   107 ressource[2,12]
                                   0                          15 
   108 ressource[2,13]
                                   0                          15 
   109 ressource[2,14]
                                   0                          15 
   110 ressource[3,1]
                                   9                          13 
   111 ressource[3,2]
                                   9                          13 
   112 ressource[3,3]
                                   9                          13 
   113 ressource[3,4]
                                   9                          13 
   114 ressource[3,5]
                                   9                          13 
   115 ressource[3,6]
                                   9                          13 
   116 ressource[3,7]
                                  13                          13 
   117 ressource[3,8]
                                   0                          13 
   118 ressource[3,9]
                                   0                          13 
   119 ressource[3,10]
                                   0                          13 
   120 ressource[3,11]
                                   0                          13 
   121 ressource[3,12]
                                   0                          13 
   122 ressource[3,13]
                                   0                          13 
   123 ressource[3,14]
                                   0                          13 
   124 obj                         7                             

   No. Column name       Activity     Lower bound   Upper bound
------ ------------    ------------- ------------- -------------
     1 x[1,1]       *              0             0             1 
     2 x[1,2]       *              0             0             1 
     3 x[1,3]       *              0             0             1 
     4 x[1,4]       *              0             0             1 
     5 x[1,5]       *              0             0             1 
     6 x[1,6]       *              0             0             1 
     7 x[1,7]       *              1             0             1 
     8 x[1,8]       *              0             0             1 
     9 x[1,9]       *              0             0             1 
    10 x[1,10]      *              0             0             1 
    11 x[1,11]      *              0             0             1 
    12 x[1,12]      *              0             0             1 
    13 x[1,13]      *              0             0             1 
    14 x[1,14]      *              0             0             1 
    15 x[2,1]       *              1             0             1 
    16 x[2,2]       *              1             0             1 
    17 x[2,3]       *              1             0             1 
    18 x[2,4]       *              1             0             1 
    19 x[2,5]       *              1             0             1 
    20 x[2,6]       *              1             0             1 
    21 x[2,7]       *              0             0             1 
    22 x[2,8]       *              0             0             1 
    23 x[2,9]       *              0             0             1 
    24 x[2,10]      *              0             0             1 
    25 x[2,11]      *              0             0             1 
    26 x[2,12]      *              0             0             1 
    27 x[2,13]      *              0             0             1 
    28 x[2,14]      *              0             0             1 
    29 x[3,1]       *              1             0             1 
    30 x[3,2]       *              1             0             1 
    31 x[3,3]       *              1             0             1 
    32 x[3,4]       *              1             0             1 
    33 x[3,5]       *              1             0             1 
    34 x[3,6]       *              1             0             1 
    35 x[3,7]       *              1             0             1 
    36 x[3,8]       *              0             0             1 
    37 x[3,9]       *              0             0             1 
    38 x[3,10]      *              0             0             1 
    39 x[3,11]      *              0             0             1 
    40 x[3,12]      *              0             0             1 
    41 x[3,13]      *              0             0             1 
    42 x[3,14]      *              0             0             1 
    43 z                           7                             

Integer feasibility conditions:

KKT.PE: max.abs.err = 0.00e+00 on row 0
        max.rel.err = 0.00e+00 on row 0
        High quality

KKT.PB: max.abs.err = 0.00e+00 on row 0
        max.rel.err = 0.00e+00 on row 0
        High quality

End of output
